50
205
246
206
218
203
222
241
229
232
243
236
213
247
206
245
241
209
240
242
213
204
221
210
227
204
243
203
250
237
248
232
217
205
218
218
220
226
249
241
222
245
206
221
241
212
233
226
239
229
236
